 # Version information for this restart file 
 # current date 2018-09-25 14:31:19.122
 # Program compiled at                              Sat Sep  1 00:05:09 +07 2018
 # Program compiled for                                                    local
 # Source code revision number                                         svn:18464
 &GLOBAL
   PRINT_LEVEL  MEDIUM
   PROJECT_NAME 1_MFM-300_Al
   RUN_TYPE  GEO_OPT
 &END GLOBAL
 &MOTION
   &GEO_OPT
     TYPE  MINIMIZATION
     OPTIMIZER  BFGS
     MAX_DR     1.0000000000000000E-02
     RMS_DR     5.0000000000000001E-03
     STEP_START_VAL  14
   &END GEO_OPT
   &PRINT
     &TRAJECTORY  SILENT
       ADD_LAST  NUMERIC
       LOG_PRINT_KEY  T
       FORMAT  PDB
     &END TRAJECTORY
     &RESTART_HISTORY  OFF
     &END RESTART_HISTORY
   &END PRINT
 &END MOTION
 &FORCE_EVAL
   METHOD  QS
   STRESS_TENSOR  ANALYTICAL
   &DFT
     BASIS_SET_FILE_NAME BASIS_MOLOPT
     POTENTIAL_FILE_NAME POTENTIAL
     &SCF
       MAX_SCF  15
       EPS_SCF     9.9999999999999995E-07
       SCF_GUESS  ATOMIC
       &OT  T
         MINIMIZER  DIIS
         PRECONDITIONER  FULL_SINGLE_INVERSE
       &END OT
       &OUTER_SCF  T
         EPS_SCF     9.9999999999999995E-07
         MAX_SCF  200
       &END OUTER_SCF
       &PRINT
         &RESTART  OFF
         &END RESTART
       &END PRINT
     &END SCF
     &QS
       EPS_DEFAULT     9.9999999999999998E-13
     &END QS
     &MGRID
       NGRIDS  5
       CUTOFF     5.0000000000000000E+02
     &END MGRID
     &XC
       DENSITY_CUTOFF     1.0000000000000000E-10
       GRADIENT_CUTOFF     1.0000000000000000E-10
       TAU_CUTOFF     1.0000000000000000E-10
       &XC_GRID
         XC_SMOOTH_RHO  NN10
         XC_DERIV  SPLINE2_SMOOTH
       &END XC_GRID
       &XC_FUNCTIONAL  NO_SHORTCUT
         &PBE  T
         &END PBE
       &END XC_FUNCTIONAL
       &VDW_POTENTIAL
         POTENTIAL_TYPE  PAIR_POTENTIAL
         &PAIR_POTENTIAL
           R_CUTOFF     1.6000000000000000E+01
           TYPE  DFTD3
           PARAMETER_FILE_NAME dftd3.dat
           REFERENCE_FUNCTIONAL PBE
           VERBOSE_OUTPUT  T
         &END PAIR_POTENTIAL
       &END VDW_POTENTIAL
     &END XC
     &PRINT
       &MULLIKEN  OFF
       &END MULLIKEN
       &HIRSHFELD  OFF
       &END HIRSHFELD
     &END PRINT
   &END DFT
   &SUBSYS
     &CELL
       A     1.4830000000000000E+01    0.0000000000000000E+00    0.0000000000000000E+00
       B     0.0000000000000000E+00    1.4830000000000004E+01    0.0000000000000000E+00
       C     0.0000000000000000E+00    0.0000000000000000E+00    1.1773000000000000E+01
       PERIODIC  XYZ
       MULTIPLE_UNIT_CELL  1 1 1
       SYMMETRY  ORTHORHOMBIC
     &END CELL
     &COORD
Al    2.8537373493037528E+00    1.0270057512227345E+01    8.8312735434935909E+00
Al    4.5598165092333920E+00    1.1973500663022257E+01    2.9447955574190252E+00
Al    4.5584880753233632E+00    1.0268850329503708E+01    1.7486469648902629E-03
Al    2.8550881914446209E+00    1.1974798073097013E+01    5.8878786288882941E+00
Al    1.0268748368048655E+01    2.8549598598725927E+00    2.9447511671567774E+00
Al    1.1974834488038743E+01    4.5584216002704068E+00    8.8312873793322648E+00
Al    1.1973576145627995E+01    2.8537077459126747E+00    5.8882650200515538E+00
Al    1.0270162099947203E+01    4.5596254977411625E+00    1.3437445070887187E-03
H    4.6957165728389842E+00    1.1119891258860942E+01    7.3581512186420213E+00
O    3.7259650724680649E+00    1.1126806596561893E+01    7.3629373729436329E+00
H    3.7104939024459638E+00    1.2110402592585107E+01    1.0301075001775375E+01
O    3.6980061426491777E+00    1.1140685417962562E+01    1.0308573482224086E+01
H    2.7186255327179989E+00    1.1125368105936476E+01    1.4713853983904113E+00
O    3.6883348176812660E+00    1.1113793069351470E+01    1.4784139074672740E+00
H    3.7051023046370628E+00    1.0133388946079085E+01    4.4149906355108453E+00
O    3.7114522662675848E+00    1.1103135129282464E+01    4.4194579347855143E+00
H    1.2110812010130415E+01    3.7053193711134598E+00    1.4717872479325009E+00
O    1.1141053689869711E+01    3.7109263553825143E+00    1.4759384048865460E+00
H    1.1125616658480626E+01    4.6953494555056450E+00    4.4146281804441356E+00
O    1.1113193388212265E+01    3.7256298023731698E+00    4.4220251333689360E+00
H    1.0133715602393416E+01    3.7107615446577116E+00    7.3577519228356127E+00
O    1.1103415233419044E+01    3.6982068210208512E+00    7.3652242793542353E+00
H    1.1120258011008135E+01    2.7183609518695588E+00    1.0301446968563454E+01
O    1.1126611455948005E+01    3.6881028470916974E+00    1.0305947488951279E+01
C1    7.4145270310063154E+00    7.4145833310756384E+00    6.6187889075632578E+00
C1    7.4145947512566881E+00    7.4145110432799601E+00    5.1548673758212429E+00
C2    6.3488725412650444E+00    7.9721038369954407E+00    7.3287886358089933E+00
C2    6.8576196630681343E+00    8.4804247032849869E+00    4.4448265461995327E+00
C2    8.4803683078983418E+00    6.8574703084835136E+00    7.3288111843705348E+00
C2    7.9719669931349335E+00    6.3487803368322249E+00    4.4448407358176025E+00
C3    6.3737918401424007E+00    8.0161206220889127E+00    8.7225313582736543E+00
C3    6.8139420893399514E+00    8.4555098464934861E+00    3.0511474077749612E+00
C3    8.4554335639746387E+00    6.8134065759376599E+00    8.7225249439918482E+00
C3    8.0156125209248916E+00    6.3736701871238717E+00    3.0511267395047965E+00
C4    7.4147414441433872E+00    7.4149628782151051E+00    9.4340963770159902E+00
C4    7.4149740725889464E+00    7.4147233638507366E+00    2.3395333298128667E+00
C5    5.3097041971310945E+00    8.7843039028565499E+00    9.4127316279199587E+00
C5    6.0472293721991068E+00    9.5198661551320658E+00    2.3603918940636199E+00
C5    9.5196581176410184E+00    6.0455247629195110E+00    9.4127848766374100E+00
C5    8.7826900619463402E+00    5.3094674685958720E+00    2.3604352856465658E+00
H2    5.4820902159169593E+00    8.3831530163991310E+00    6.8098197580529396E+00
H2    6.4464248204294829E+00    9.3472643673235805E+00    4.9635445814275769E+00
H2    9.3470732579004938E+00    6.4463643531594181E+00    6.8097984328748238E+00
H2    8.3831127373012198E+00    5.4818773952080795E+00    4.9635281133478122E+00
H4    7.4147187744542187E+00    7.4149366395136775E+00    1.0523139543719619E+01
H4    7.4149410736242061E+00    7.4147156568941393E+00    1.2505003717873446E+00
O1    4.2078774564541286E+00    8.9415586234046245E+00    8.7872795736377309E+00
O1    5.8902126524953049E+00    1.0621677635910387E+01    2.9857908357111489E+00
O1    1.0621088616255108E+01    5.8873444576479397E+00    8.7867588382897459E+00
O1    8.9387965799989466E+00    4.2072361634403652E+00    2.9852279300652498E+00
O2    9.2650378971698757E+00    5.6104969796724262E+00    1.2292500542876621E+00
O2    9.2193692078203746E+00    5.5635671302382264E+00    1.0544264873724270E+01
O2    5.5655222055465545E+00    9.2189996447086777E+00    1.2289171089988351E+00
O2    5.6101874900996478E+00    9.2668835008965900E+00    1.0543920691034561E+01
C1   -4.1003789199458283E-04   -3.2036092586692897E-04    7.3222059801853545E-01
C1   -3.2230624637051992E-04   -4.3294715621380365E-04    1.1041309854881820E+01
C2    1.0653571442432972E+00    1.4272470209573079E+01    1.4422737085621373E+00
C2    5.5686680466309146E-01    1.3763706893112166E+01    1.0331338045688646E+01
C2    1.3763821299210827E+01    5.5693857124519619E-01    1.4422694663808049E+00
C2    1.4272571137471738E+01    1.0654472074724199E+00    1.0331340557344388E+01
C3    1.0405551408398421E+00    1.4228567881478288E+01    2.8359998481861863E+00
C3    6.0065649952671563E-01    1.3788748032566996E+01    8.9376437233960786E+00
C3    1.3788858586451740E+01    6.0123367991686183E-01    2.8359922119968624E+00
C3    1.4229169686032154E+01    1.0406196540350889E+00    8.9376485844283771E+00
C4   -3.3269476014465682E-04   -1.4870728867684657E-04    3.5475326432260665E+00
C4   -1.4000557552202195E-04   -3.5224760305859593E-04    8.2260005459243217E+00
C5    2.1046928213521059E+00    1.3460561373507122E+01    3.5262412402158652E+00
C5    1.3674184476057447E+00    1.2724405075528461E+01    8.2468776475056558E+00
C5    1.2724594944574601E+01    1.3689798646698796E+00    3.5263582619642992E+00
C5    1.3462202449568215E+01    2.1048522526029627E+00    8.2470047145835945E+00
H2    1.9321399239986701E+00    1.3861493345528215E+01    9.2325341844664810E-01
H2    9.6816793637179444E-01    1.2896899975050175E+01    1.0850030576220579E+01
H2    1.2897106908062172E+01    9.6808756477789171E-01    9.2330077407069000E-01
H2    1.3861430526574052E+01    1.9323240030438753E+00    1.0850072420563990E+01
H4   -2.5651487165144173E-04   -7.1333767792703605E-05    4.6365732765098775E+00
H4   -6.7760105771297823E-05   -2.6244536171029267E-04    7.1369677387272246E+00
O1    3.2062188741743749E+00    1.3302539536474271E+01    2.9003517369091800E+00
O1    1.5236383212172038E+00    1.1622185071280976E+01    8.8716751256176174E+00
O1    1.1622812515201860E+01    1.5264095942802147E+00    2.9008639370384519E+00
O1    1.3305433851634612E+01    3.2068042379241231E+00    8.8722128714803041E+00
O2    1.2980828461035507E+01    1.8040606010225921E+00    7.1153627514994655E+00
O2    1.3025255922914349E+01    1.8518344694666318E+00    4.6573681710656896E+00
O2    1.8497583762342935E+00    1.3025486582975425E+01    7.1157099388419995E+00
O2    1.8043464471509745E+00    1.2978664698928389E+01    4.6577271205317556E+00
C1   -3.7107865755079396E-06    7.4143154135515745E+00    3.6756613901600494E+00
C1   -6.4720875076773523E-04    7.4149223747233295E+00    2.2117620583269559E+00
C2    5.5660270541135481E-01    8.4805921243208537E+00    4.3854984038558431E+00
C2    1.0654102276610240E+00    7.9715010763876899E+00    1.5015566421714996E+00
C2    1.4272017910583484E+01    6.3488423000068348E+00    4.3854711640665212E+00
C2    1.3763942801531275E+01    6.8572684342565893E+00    1.5015641909062738E+00
C3    6.0079418128321715E-01    8.4553080992893772E+00    5.7791927485739123E+00
C3    1.0405611069172871E+00    8.0150310354292724E+00    1.0787687335590192E-01
C3    1.4228036813949535E+01    6.3737337644964249E+00    5.7792146807920961E+00
C3    1.3788636503193434E+01    6.8135041952402107E+00    1.0786235367421397E-01
C4   -6.7333282349221714E-04    7.4145803160676405E+00    6.4908021011685184E+00
C4   -5.0921189107687643E-04    7.4144299393469915E+00    1.1169287446395540E+01
C5    1.3686205671802605E+00    9.5195558453739508E+00    6.4694686265145140E+00
C5    2.1047401578342835E+00    8.7821282393282889E+00    1.1190269792131565E+01
C5    1.3460036545295091E+01    5.3095711989418728E+00    6.4694695796791803E+00
C5    1.2724308811984825E+01    6.0467464758364242E+00    1.1190101360633424E+01
H2    9.6806042155309957E-01    9.3471224539666746E+00    3.8665304453076188E+00
H2    1.9322066446525634E+00    8.3829423105278362E+00    2.0201467275021345E+00
H2    1.3861319444304822E+01    5.4819584049729491E+00    3.8663649967474583E+00
H2    1.2896935414455434E+01    6.4463719491630149E+00    2.0202938534465407E+00
H4   -5.7338057317664717E-04    7.4145779836637402E+00    7.5798446176486847E+00
H4   -3.9852312319089154E-04    7.4144303197719745E+00    1.0080254232492083E+01
O1    1.5259131011400933E+00    1.0621411927655029E+01    5.8440402427002800E+00
O1    3.2070695698112588E+00    8.9381294767998174E+00    4.1965676581159614E-02
O1    1.3301783277433843E+01    4.2082369044945063E+00    5.8433317234679256E+00
O1    1.1622622662851647E+01    5.8894437558073394E+00    4.2637394527111724E-02
O2    1.3025285666080096E+01    5.5644115139119146E+00    1.0058927151761111E+01
O2    1.2977329220127594E+01    5.6100424484316083E+00    7.6005831058892941E+00
O2    1.8039100198854296E+00    9.2633331643883512E+00    1.0058551342186480E+01
O2    1.8506486997333502E+00    9.2191015965135428E+00    7.6008832708084144E+00
C1    7.4149070290038805E+00   -6.2631386458282849E-04    9.5621946687556196E+00
C1    7.4142999455492591E+00   -2.7729792485989735E-06    8.0982973115208274E+00
C2    6.8571076527200461E+00    1.3763802031646458E+01    1.0272001464849303E+01
C2    6.3489612199583245E+00    1.4272202002204837E+01    7.3881030563603733E+00
C2    7.9716689102195080E+00    1.0655721764678381E+00    1.0272011255847664E+01
C2    8.4804364686322433E+00    5.5642931303858412E-01    7.3880823406025966E+00
C3    6.8129834973358809E+00    1.3788782341995676E+01    1.1665731384270059E+01
C3    6.3735648257499316E+00    1.4228612458695894E+01    5.9943857036365999E+00
C3    8.0155531910893014E+00    1.0404433507987083E+00    1.1665722560621683E+01
C3    8.4554589606381523E+00    6.0019318230987095E-01    5.9944172964779030E+00
C4    7.4144390087807714E+00   -5.0239915819307523E-04    6.0433166117293369E-01
C4    7.4145669286893758E+00   -6.7528494450817995E-04    5.2828157946779024E+00
C5    6.0451948887743931E+00    1.2724540042829537E+01    5.8305952561646435E-01
C5    5.3093225502640511E+00    1.3461664091111778E+01    5.3036923375891556E+00
C5    8.7837313981686727E+00    2.1045030037411707E+00    5.8288788853791229E-01
C5    9.5198044782066678E+00    1.3669422025320419E+00    5.3036998155455386E+00
H2    6.4463239759531827E+00    1.2896971241916310E+01    9.7529025122733781E+00
H2    5.4819144395200459E+00    1.3861360878564618E+01    7.9068393391575729E+00
H2    8.3829943368059201E+00    1.9321915308988442E+00    9.7530483631035132E+00
H2    9.3471464334316980E+00    9.6801104424728401E-01    7.9066730366974989E+00
H4    7.4144318325984075E+00   -3.9773015029158788E-04    1.6933733748855133E+00
H4    7.4145788768087444E+00   -5.7517977794164913E-04    4.1937834933574285E+00
O1    5.8867697985213043E+00    1.1623267538534105E+01    1.1729846503264200E+01
O1    4.2075071561109620E+00    1.3304657722459773E+01    5.9290620734790149E+00
O1    8.9408240165032673E+00    3.2064507866691847E+00    1.1730581226430036E+01
O1    1.0622105945884460E+01    1.5230297265900345E+00    5.9284340076896127E+00
O2    9.2188444737674899E+00    1.8485067032547999E+00    4.1721765771438477E+00
O2    9.2653461423344528E+00    1.8041642162531795E+00    1.7145170951861151E+00
O2    5.6103124456244036E+00    1.2979297653879261E+01    4.1725292391421229E+00
O2    5.5625370220440757E+00    1.3025011080115844E+01    1.7141896706304522E+00
     &END COORD
     &KIND Al
       BASIS_SET DZVP-MOLOPT-SR-GTH
       POTENTIAL GTH-PBE-q3
       &POTENTIAL
 2 1
  0.4500000000000000E+00 1 -0.7554761260000000E+01
 2
  0.4874352900000000E+00 2  0.6959938320000000E+01 -0.1888835840000000E+01
  0.2438476590000000E+01
  0.5621894900000000E+00 1  0.1865298570000000E+01
         # Potential name:  GTH-PBE-Q3  for symbol:  AL
         # Potential read from the potential filename: POTENTIAL
       &END POTENTIAL
     &END KIND
     &KIND O
       BASIS_SET DZVP-MOLOPT-GTH
       POTENTIAL GTH-PBE-q6
       &POTENTIAL
 2 4
  0.2445543000000000E+00 2 -0.1666721480000000E+02  0.2487311320000000E+01
 2
  0.2209559200000000E+00 1  0.1833745811000000E+02
  0.2113324700000000E+00 0
         # Potential name:  GTH-PBE-Q6  for symbol:  O
         # Potential read from the potential filename: POTENTIAL
       &END POTENTIAL
     &END KIND
     &KIND C
       BASIS_SET DZVP-MOLOPT-GTH
       POTENTIAL GTH-PBE-q4
       &POTENTIAL
 2 2
  0.3384712400000000E+00 2 -0.8803673979999999E+01  0.1339210850000000E+01
 2
  0.3025757500000000E+00 1  0.9622486650000001E+01
  0.2915069400000000E+00 0
         # Potential name:  GTH-PBE-Q4  for symbol:  C
         # Potential read from the potential filename: POTENTIAL
       &END POTENTIAL
     &END KIND
     &KIND H
       BASIS_SET DZVP-MOLOPT-GTH
       POTENTIAL GTH-PBE-q1
       &POTENTIAL
 1
  0.2000000000000000E+00 2 -0.4178900440000000E+01  0.7244633100000000E+00
 0
         # Potential name:  GTH-PBE-Q1  for symbol:  H
         # Potential read from the potential filename: POTENTIAL
       &END POTENTIAL
     &END KIND
     &TOPOLOGY
       COORD_FILE_NAME a1_MFM-300_Al_symkinds.xyz
       COORD_FILE_FORMAT  XYZ
       NUMBER_OF_ATOMS  144
       CONN_FILE_FORMAT  OFF
       MULTIPLE_UNIT_CELL  1 1 1
     &END TOPOLOGY
   &END SUBSYS
 &END FORCE_EVAL
