 # Version information for this restart file 
 # current date 2018-09-25 15:03:03.284
 # Program compiled at                              Sat Sep  1 00:05:09 +07 2018
 # Program compiled for                                                    local
 # Source code revision number                                         svn:18464
 &GLOBAL
   PRINT_LEVEL  MEDIUM
   PROJECT_NAME 2_MFM-300_In
   RUN_TYPE  GEO_OPT
 &END GLOBAL
 &MOTION
   &GEO_OPT
     TYPE  MINIMIZATION
     OPTIMIZER  BFGS
     MAX_DR     1.0000000000000000E-02
     RMS_DR     5.0000000000000001E-03
     STEP_START_VAL  12
   &END GEO_OPT
   &PRINT
     &TRAJECTORY  SILENT
       ADD_LAST  NUMERIC
       LOG_PRINT_KEY  T
       FORMAT  PDB
     &END TRAJECTORY
     &RESTART_HISTORY  OFF
     &END RESTART_HISTORY
   &END PRINT
 &END MOTION
 &FORCE_EVAL
   METHOD  QS
   STRESS_TENSOR  ANALYTICAL
   &DFT
     BASIS_SET_FILE_NAME BASIS_MOLOPT
     POTENTIAL_FILE_NAME POTENTIAL
     &SCF
       MAX_SCF  15
       EPS_SCF     9.9999999999999995E-07
       SCF_GUESS  ATOMIC
       &OT  T
         MINIMIZER  DIIS
         PRECONDITIONER  FULL_SINGLE_INVERSE
       &END OT
       &OUTER_SCF  T
         EPS_SCF     9.9999999999999995E-07
         MAX_SCF  200
       &END OUTER_SCF
       &PRINT
         &RESTART  OFF
         &END RESTART
       &END PRINT
     &END SCF
     &QS
       EPS_DEFAULT     9.9999999999999998E-13
     &END QS
     &MGRID
       NGRIDS  5
       CUTOFF     5.0000000000000000E+02
     &END MGRID
     &XC
       DENSITY_CUTOFF     1.0000000000000000E-10
       GRADIENT_CUTOFF     1.0000000000000000E-10
       TAU_CUTOFF     1.0000000000000000E-10
       &XC_GRID
         XC_SMOOTH_RHO  NN10
         XC_DERIV  SPLINE2_SMOOTH
       &END XC_GRID
       &XC_FUNCTIONAL  NO_SHORTCUT
         &PBE  T
         &END PBE
       &END XC_FUNCTIONAL
       &VDW_POTENTIAL
         POTENTIAL_TYPE  PAIR_POTENTIAL
         &PAIR_POTENTIAL
           R_CUTOFF     1.6000000000000000E+01
           TYPE  DFTD3
           PARAMETER_FILE_NAME dftd3.dat
           REFERENCE_FUNCTIONAL PBE
           VERBOSE_OUTPUT  T
         &END PAIR_POTENTIAL
       &END VDW_POTENTIAL
     &END XC
     &PRINT
       &MULLIKEN  OFF
       &END MULLIKEN
       &HIRSHFELD  OFF
       &END HIRSHFELD
     &END PRINT
   &END DFT
   &SUBSYS
     &CELL
       A     1.5489000000000003E+01    0.0000000000000000E+00    0.0000000000000000E+00
       B     0.0000000000000000E+00    1.5489000000000003E+01    0.0000000000000000E+00
       C     0.0000000000000000E+00    0.0000000000000000E+00    1.2344000000000003E+01
       PERIODIC  XYZ
       MULTIPLE_UNIT_CELL  1 1 1
       SYMMETRY  ORTHORHOMBIC
     &END CELL
     &COORD
In    2.9023183857137771E+00    1.0647249959800572E+01    9.2577953593161357E+00
In    4.8406201702136133E+00    1.2585665111358111E+01    3.0859570215794481E+00
In    4.8405865524311800E+00    1.0647584021396192E+01   -1.2816251277395326E-04
In    2.9022789791662071E+00    1.2586004636940096E+01    6.1720879724551132E+00
In    1.0647295622723851E+01    2.9023610249618583E+00    3.0860554557426214E+00
In    1.2585704185042484E+01    4.8406640490389341E+00    9.2578962244254726E+00
In    1.2586007196704456E+01    2.9022813199464750E+00    6.1718843117022546E+00
In    1.0647575835696811E+01    4.8405816763328993E+00   -9.4626776467325317E-05
H    4.9846139079554783E+00    1.1616543060794459E+01    7.7149913538666874E+00
O    4.0133281892783161E+00    1.1616591982160632E+01    7.7149453322470727E+00
H    3.8725401195304232E+00    1.2729733784482043E+01    1.0800038165295632E+01
O    3.8700406847601085E+00    1.1758436157127184E+01    1.0801536073967487E+01
H    2.7584342402342088E+00    1.1616547577385141E+01    1.5429051549671307E+00
O    3.7297202840837302E+00    1.1616261940315006E+01    1.5431364901604743E+00
H    3.8724242103199580E+00    1.0503667390400606E+01    4.6297534920717034E+00
O    3.8705109172626484E+00    1.1474954253924912E+01    4.6285996945373178E+00
H    1.2729719630494731E+01    3.8723546164079115E+00    1.5436615791675936E+00
O    1.1758418851838996E+01    3.8707056500239192E+00    1.5426521287248014E+00
H    1.1616474185660016E+01    4.9845916341468097E+00    4.6289975132324814E+00
O    1.1616468665019775E+01    4.0133044684183794E+00    4.6290866278251732E+00
H    1.0503642960010646E+01    3.8723525816167075E+00    7.7142352670073890E+00
O    1.1474928393849293E+01    3.8703876874806493E+00    7.7154322316384150E+00
H    1.1616362811119403E+01    2.7584212522132048E+00    1.0800798871593862E+01
O    1.1616929271805716E+01    3.7297054386008890E+00    1.0801055106211892E+01
C1    7.7444548169403662E+00    7.7447762944833487E+00    6.9094134145512109E+00
C1    7.7447773289766468E+00    7.7444592456013899E+00    5.4345556357379978E+00
C2    6.6702274845238243E+00    8.2906695064034803E+00    7.6257211923335868E+00
C2    7.1977419692620481E+00    8.8180675997679359E+00    4.7181876225653747E+00
C2    8.8181297305119681E+00    7.1976959205894744E+00    7.6256227178125418E+00
C2    8.2906149028663734E+00    6.6702911181720381E+00    4.7180916643527748E+00
C3    6.6913790590207531E+00    8.3215935927018130E+00    9.0226734257690175E+00
C3    7.1666229100642012E+00    8.7970057113152382E+00    3.3212680977256204E+00
C3    8.7969702410580144E+00    7.1666233543071769E+00    9.0225404548272916E+00
C3    8.3215874543572212E+00    6.6913448085671181E+00    3.3211378334971422E+00
C4    7.7442155325132509E+00    7.7441255844544994E+00    9.7299155701084032E+00
C4    7.7441254825111159E+00    7.7442170849086445E+00    2.6139577742493851E+00
C5    5.6110902061081092E+00    9.0275565993480242E+00    9.7609464866482618E+00
C5    6.4617701387081983E+00    9.8773911979353262E+00    2.5820512699119842E+00
C5    9.8773045420162298E+00    6.4615831134550081E+00    9.7616389752183768E+00
C5    9.0273757811782716E+00    5.6110145618684735E+00    2.5827440295411077E+00
H2    5.7996416107373134E+00    8.6970614000430206E+00    7.1087775742246144E+00
H2    6.7918135178609456E+00    9.6889637741364130E+00    5.2349920720976577E+00
H2    9.6890134083538033E+00    6.7917681118157622E+00    7.1087994195546687E+00
H2    8.6970149640146523E+00    5.7996963732217495E+00    5.2350170422291420E+00
H4    7.7440676056582110E+00    7.7440219525417007E+00    1.0819027596950631E+01
H4    7.7440213640466569E+00    7.7440664861351243E+00    1.5248356171638273E+00
O1    4.4818075649392402E+00    9.1265629920541489E+00    9.1846339478020376E+00
O1    6.3612431032006347E+00    1.1006400337561420E+01    3.1585667499873997E+00
O1    1.1006389017928699E+01    6.3613046304309178E+00    9.1852488517430615E+00
O1    9.1266276400043136E+00    4.4818023169569923E+00    3.1591731710031854E+00
O2    9.5378486433796930E+00    5.9941300358547869E+00    1.0899007740269409E+01
O2    9.4922936107625926E+00    5.9489988577161990E+00    1.4439997482787512E+00
O2    5.9491347872987035E+00    9.4926191398633009E+00    1.0899611607320780E+01
O2    5.9944742000244284E+00    9.5379989641391951E+00    1.4445967777644557E+00
C1   -9.0685394573483455E-05    1.7701387196864836E-04    7.3737442865656588E-01
C1    1.7551181282287402E-04   -9.1805504756122403E-05    1.1606603637682039E+01
C2    1.0736313221756792E+00    1.4942217287572680E+01    1.4535728167630233E+00
C2    5.4614533298401036E-01    1.4414719234634372E+01    1.0890277120207802E+01
C2    1.4414713339257045E+01    5.4616092278395656E-01    1.4536733861367397E+00
C2    1.4942233996874391E+01    1.0736261754744865E+00    1.0890378718110407E+01
C3    1.0525593250449219E+00    1.4911397721004690E+01    2.8504764642100886E+00
C3    5.7724683769159180E-01    1.4436017536669077E+01    9.4933914568066022E+00
C3    1.4436010899748958E+01    5.7723649513336672E-01    2.8505593341480360E+00
C3    1.4911389496665201E+01    1.0525542664850087E+00    9.4934755208565900E+00
C4   -2.0185544086259925E-04   -2.2283530046605403E-04    3.5577737165214880E+00
C4   -2.2393925065152144E-04   -2.0199653162720918E-04    8.7861768055348097E+00
C5    2.1326312096106865E+00    1.4206473034545928E+01    3.5897991865178716E+00
C5    1.2827797043270996E+00    1.3356018605064056E+01    8.7545436288229777E+00
C5    1.3356012019102881E+01    1.2827992004462425E+00    3.5893735641241227E+00
C5    1.4206495426748960E+01    2.1326262407137642E+00    8.7541184064875885E+00
H2    1.9444418743636624E+00    1.4536169924811681E+01    9.3669700849983806E-01
H2    9.5260135183974615E-01    1.3544146180586282E+01    1.1407202597734813E+01
H2    1.3544145132313602E+01    9.5261209611358144E-01    9.3673751869743771E-01
H2    1.4536180651851138E+01    1.9444413385893089E+00    1.1407243731846743E+01
H4   -2.0583322304871301E-04   -1.3847916831275349E-04    4.6468843617967996E+00
H4   -1.3824908075798221E-04   -2.0499499560110946E-04    7.6970662074515763E+00
O1    3.2619285051398772E+00    1.4106532640603216E+01    3.0138641674063584E+00
O1    1.3812483698326028E+00    1.2226192261324107E+01    9.3297962688126717E+00
O1    1.2226251779176780E+01    1.3813600651921232E+00    3.0140031461389394E+00
O1    1.4106643537370960E+01    3.2619878597703242E+00    9.3299380537288492E+00
O2    1.3695247378963114E+01    1.7487305441028744E+00    4.7273769431340273E+00
O2    1.3739214047775526E+01    1.7927547767921541E+00    7.6167767354933877E+00
O2    1.7928489799552989E+00    1.3739292375674328E+01    4.7272018042026227E+00
O2    1.7488130278520970E+00    1.3695345858689839E+01    7.6166024766338687E+00
C1   -1.7645604345834914E-04    7.7442140382576383E+00    3.8234470882028426E+00
C1   -3.3126638056401420E-04    7.7444198510275166E+00    2.3486310762245970E+00
C2    5.4627529564604582E-01    8.8182201770194339E+00    4.5396853848966501E+00
C2    1.0736627960205321E+00    8.2905540923825036E+00    1.6321469759173814E+00
C2    1.4942148469161642E+01    6.6702814919726183E+00    4.5395520505706655E+00
C2    1.4414821381613722E+01    7.1978642079002739E+00    1.6322785852274455E+00
C3    5.7700662967441296E-01    8.7969371359647077E+00    5.9365985654763609E+00
C3    1.0525315903958796E+00    8.3213529296764275E+00    2.3521129179663602E-01
C3    1.4911134793639610E+01    6.6913477694448105E+00    5.9364692701176693E+00
C3    1.4435974613773851E+01    7.1663717711649486E+00    2.3539321489598036E-01
C4   -2.1062960132539694E-04    7.7439428175043084E+00    6.6438182445856482E+00
C4   -4.8010242838744080E-04    7.7441473100474170E+00    1.1872051601727748E+01
C5    1.2826751312522149E+00    9.8767786900914061E+00    6.6756636484544050E+00
C5    2.1323217660037437E+00    9.0272300942823271E+00    1.1840311552582076E+01
C5    1.4206399204095685E+01    5.6106930371437427E+00    6.6753210954550140E+00
C5    1.3355409435605434E+01    6.4617023408573671E+00    1.1840390441273641E+01
H2    9.5265306941933980E-01    9.6888798943813814E+00    4.0228260613787699E+00
H2    1.9444247543387025E+00    8.6967758889237388E+00    2.1489692707640082E+00
H2    1.4535921445312095E+01    5.7996436533431881E+00    4.0225654001670277E+00
H2    1.3544031638673745E+01    6.7918459438373242E+00    2.1491712221280141E+00
H4   -2.4159232282220983E-04    7.7440257036015039E+00    7.7329331033042958E+00
H4   -2.5237658884280227E-04    7.7439190918741456E+00    1.0782934130133487E+01
O1    1.3816256341915338E+00    1.1006556242409639E+01    6.1004198355026249E+00
O1    3.2618547462976624E+00    9.1265270559129892E+00    7.1978925811271355E-02
O1    1.4106525359391489E+01    4.4816823460632893E+00    6.0986950113187426E+00
O1    1.2226369636877996E+01    6.3615871566296001E+00    7.2934067619413859E-02
O2    1.3740291755299785E+01    5.9492780504168836E+00    7.8134479261506371E+00
O2    1.3694500095374684E+01    5.9948279526281949E+00    1.0702710783396535E+01
O2    1.7491947619531298E+00    9.5371252218621514E+00    7.8133474292929570E+00
O2    1.7930454460988594E+00    9.4933979402373723E+00    1.0702382654341029E+01
C1    7.7444226876332802E+00   -3.2966374195720369E-04    9.9954766934639743E+00
C1    7.7442187950466748E+00   -1.8371615474251129E-04    8.5206607875894100E+00
C2    7.1978025369797516E+00    1.4414727640760770E+01    1.0711612024762424E+01
C2    6.6703943684535494E+00    1.4942195485788565E+01    7.8043337502981451E+00
C2    8.2906147964673149E+00    1.0737617350493407E+00    1.0711745801919180E+01
C2    8.8181033378346214E+00    5.4623836123839253E-01    7.8041991590838533E+00
C3    7.1663433029335462E+00    1.4436035403523700E+01    1.2108494222347053E+01
C3    6.6913030736500696E+00    1.4911156043528811E+01    6.4074120861830126E+00
C3    8.3213874280297055E+00    1.0524716934351384E+00    1.2108677941659010E+01
C3    8.7969831216426222E+00    5.7698615246459983E-01    6.4072805708898493E+00
C4    7.7441449291437596E+00   -4.7694019629499092E-04    4.7191054061158516E-01
C4    7.7439431864584343E+00   -2.1085842628502371E-04    5.7001224018285734E+00
C5    6.4615382229268237E+00    1.3355496358320108E+01    5.0339247976190282E-01
C5    5.6106528624377177E+00    1.4206433651029183E+01    5.6685267720579873E+00
C5    9.0274051155407999E+00    2.1322398921391601E+00    5.0346188952361737E-01
C5    9.8768263598111226E+00    1.2826314351858767E+00    5.6681795012003713E+00
H2    6.7917955951789004E+00    1.3543956139053073E+01    1.0194682782275079E+01
H2    5.7997325510368585E+00    1.4535965825110289E+01    8.3212802281124514E+00
H2    8.6968284841809833E+00    1.9445018334301760E+00    1.0194884111811476E+01
H2    9.6887933017340195E+00    9.5260652423772751E-01    8.3210174027040438E+00
H4    7.7439188061685424E+00   -2.5057144349145444E-04    1.5610314625061379E+00
H4    7.7440237395057885E+00   -2.4114919740528840E-04    4.6110106052908826E+00
O1    6.3615026798189422E+00    1.2226443102926261E+01    1.2270850746290776E+01
O1    4.4816932874213640E+00    1.4106490343064735E+01    6.2452356836170777E+00
O1    9.1266044389595518E+00    3.2617906358897546E+00    1.2271799252398628E+01
O1    1.1006546148883400E+01    1.3816640454342484E+00    6.2435160122105779E+00
O2    9.4936187327762305E+00    1.7929629871265760E+00    1.6413564022901987E+00
O2    9.5372619020149099E+00    1.7490407935775154E+00    4.5304197809106705E+00
O2    5.9945896064519442E+00    1.3694596923754863E+01    1.6410252774092504E+00
O2    5.9491499612445224E+00    1.3740447110872113E+01    4.5303211261407830E+00
     &END COORD
     &KIND In
       BASIS_SET DZVP-MOLOPT-SR-GTH
       POTENTIAL GTH-PBE-q13
       &POTENTIAL
 2 1 10
  0.5300000000000000E+00 1  0.3324785460000000E+01
 3
  0.4794952100000000E+00 3  0.1111716024000000E+02 -0.6573507290000000E+01  0.1506863270000000E+01
  0.1093727471000000E+02 -0.3890704220000000E+01
  0.3088150740000000E+01
  0.5699328500000000E+00 2  0.4700614190000000E+01 -0.2217064060000000E+01
  0.2623265570000000E+01
  0.3770689000000000E+00 2 -0.4002287850000000E+01 -0.8401284600000000E+00
  0.9526161399999999E+00
         # Potential name:  GTH-PBE-Q13  for symbol:  IN
         # Potential read from the potential filename: POTENTIAL
       &END POTENTIAL
     &END KIND
     &KIND O
       BASIS_SET DZVP-MOLOPT-GTH
       POTENTIAL GTH-PBE-q6
       &POTENTIAL
 2 4
  0.2445543000000000E+00 2 -0.1666721480000000E+02  0.2487311320000000E+01
 2
  0.2209559200000000E+00 1  0.1833745811000000E+02
  0.2113324700000000E+00 0
         # Potential name:  GTH-PBE-Q6  for symbol:  O
         # Potential read from the potential filename: POTENTIAL
       &END POTENTIAL
     &END KIND
     &KIND C
       BASIS_SET DZVP-MOLOPT-GTH
       POTENTIAL GTH-PBE-q4
       &POTENTIAL
 2 2
  0.3384712400000000E+00 2 -0.8803673979999999E+01  0.1339210850000000E+01
 2
  0.3025757500000000E+00 1  0.9622486650000001E+01
  0.2915069400000000E+00 0
         # Potential name:  GTH-PBE-Q4  for symbol:  C
         # Potential read from the potential filename: POTENTIAL
       &END POTENTIAL
     &END KIND
     &KIND H
       BASIS_SET DZVP-MOLOPT-GTH
       POTENTIAL GTH-PBE-q1
       &POTENTIAL
 1
  0.2000000000000000E+00 2 -0.4178900440000000E+01  0.7244633100000000E+00
 0
         # Potential name:  GTH-PBE-Q1  for symbol:  H
         # Potential read from the potential filename: POTENTIAL
       &END POTENTIAL
     &END KIND
     &TOPOLOGY
       COORD_FILE_NAME a2_MFM-300_In_symkinds.xyz
       COORD_FILE_FORMAT  XYZ
       NUMBER_OF_ATOMS  144
       CONN_FILE_FORMAT  OFF
       MULTIPLE_UNIT_CELL  1 1 1
     &END TOPOLOGY
   &END SUBSYS
 &END FORCE_EVAL
