 # Version information for this restart file 
 # current date 2018-09-25 16:21:14.076
 # Program compiled at                              Sat Sep  1 00:05:09 +07 2018
 # Program compiled for                                                    local
 # Source code revision number                                         svn:18464
 &GLOBAL
   PRINT_LEVEL  MEDIUM
   PROJECT_NAME 3_MFM-300_Ga
   RUN_TYPE  GEO_OPT
 &END GLOBAL
 &MOTION
   &GEO_OPT
     TYPE  MINIMIZATION
     OPTIMIZER  BFGS
     MAX_DR     1.0000000000000000E-02
     MAX_FORCE     1.0000000000000000E-03
     RMS_DR     5.0000000000000001E-03
     STEP_START_VAL  6
   &END GEO_OPT
   &PRINT
     &TRAJECTORY  SILENT
       ADD_LAST  NUMERIC
       LOG_PRINT_KEY  T
       FORMAT  PDB
     &END TRAJECTORY
     &RESTART_HISTORY  OFF
     &END RESTART_HISTORY
   &END PRINT
 &END MOTION
 &FORCE_EVAL
   METHOD  QS
   STRESS_TENSOR  ANALYTICAL
   &DFT
     BASIS_SET_FILE_NAME BASIS_MOLOPT
     POTENTIAL_FILE_NAME POTENTIAL
     &SCF
       MAX_SCF  15
       EPS_SCF     9.9999999999999995E-07
       SCF_GUESS  ATOMIC
       &OT  T
         MINIMIZER  DIIS
         PRECONDITIONER  FULL_SINGLE_INVERSE
       &END OT
       &OUTER_SCF  T
         EPS_SCF     9.9999999999999995E-07
         MAX_SCF  200
       &END OUTER_SCF
       &PRINT
         &RESTART  OFF
         &END RESTART
       &END PRINT
     &END SCF
     &QS
       EPS_DEFAULT     9.9999999999999998E-13
     &END QS
     &MGRID
       NGRIDS  5
       CUTOFF     5.0000000000000000E+02
     &END MGRID
     &XC
       DENSITY_CUTOFF     1.0000000000000000E-10
       GRADIENT_CUTOFF     1.0000000000000000E-10
       TAU_CUTOFF     1.0000000000000000E-10
       &XC_GRID
         XC_SMOOTH_RHO  NN10
         XC_DERIV  SPLINE2_SMOOTH
       &END XC_GRID
       &XC_FUNCTIONAL  NO_SHORTCUT
         &PBE  T
         &END PBE
       &END XC_FUNCTIONAL
       &VDW_POTENTIAL
         POTENTIAL_TYPE  PAIR_POTENTIAL
         &PAIR_POTENTIAL
           R_CUTOFF     1.6000000000000000E+01
           TYPE  DFTD3
           PARAMETER_FILE_NAME dftd3.dat
           REFERENCE_FUNCTIONAL PBE
           VERBOSE_OUTPUT  T
         &END PAIR_POTENTIAL
       &END VDW_POTENTIAL
     &END XC
     &PRINT
       &MULLIKEN  OFF
       &END MULLIKEN
       &HIRSHFELD  OFF
       &END HIRSHFELD
     &END PRINT
   &END DFT
   &SUBSYS
     &CELL
       A     1.5017000000000001E+01    0.0000000000000000E+00    0.0000000000000000E+00
       B     0.0000000000000000E+00    1.5017000000000001E+01    0.0000000000000000E+00
       C     0.0000000000000000E+00    0.0000000000000000E+00    1.1911000000000001E+01
       PERIODIC  XYZ
       MULTIPLE_UNIT_CELL  1 1 1
       SYMMETRY  ORTHORHOMBIC
     &END CELL
     &COORD
Ga    2.8664112123177432E+00    1.0374800288509892E+01    8.9321277466744498E+00
Ga    4.6423286234795986E+00    1.2150935410967724E+01    2.9784463050103152E+00
Ga    4.6384872778984372E+00    1.0378662976295612E+01   -2.3229515470908146E-05
Ga    2.8699266430247343E+00    1.2147555713707384E+01    5.9554997871767927E+00
Ga    1.0374830564378270E+01    2.8664177319973225E+00    2.9790689593898931E+00
Ga    1.2150942222234782E+01    4.6423574588361554E+00    8.9327515258576575E+00
Ga    1.2147567310471423E+01    2.8699384270303900E+00    5.9555634939330329E+00
Ga    1.0378651111580306E+01    4.6384756841282462E+00    6.0604735554896327E-05
H    4.7778374538311210E+00    1.1260685535066509E+01    7.4456934382049278E+00
O    3.8069654037346998E+00    1.1267127031442627E+01    7.4478127784124766E+00
H    3.7519580765434459E+00    1.2286015638314188E+01    1.0420225461911588E+01
O    3.7578057135824250E+00    1.1315117959306329E+01    1.0418052834349865E+01
H    2.7311082632246633E+00    1.1265162432674197E+01    1.4907409248324206E+00
O    3.7020031782598073E+00    1.1259439306910851E+01    1.4927659245132596E+00
H    3.7564610573698740E+00    1.0239581508652176E+01    4.4652168702818429E+00
O    3.7501703800516379E+00    1.1210458898389366E+01    4.4630366301395679E+00
H    1.2285998368352988E+01    3.7519310782118565E+00    1.4907559371983150E+00
O    1.1315098466851810E+01    3.7578014092349692E+00    1.4930084110806370E+00
H    1.1260707310933542E+01    4.7778872588052996E+00    4.4653204244086133E+00
O    1.1267168320661968E+01    3.8070169695213552E+00    4.4632360190061622E+00
H    1.0239631508584210E+01    3.7564830944273897E+00    7.4457968483082411E+00
O    1.1210510634938579E+01    3.7502088582583504E+00    7.4480138976961054E+00
H    1.1265134469330793E+01    2.7310903061333387E+00    1.0420240831429972E+01
O    1.1259435292662294E+01    3.7019829662694748E+00    1.0418296011126495E+01
C1    7.5085052853042349E+00    7.5083809723702419E+00    6.6881147898051969E+00
C1    7.5083821226434173E+00    7.5085060320196853E+00    5.2228801436524295E+00
C2    6.4553053863307257E+00    8.0883148852076125E+00    7.4000723884239097E+00
C2    6.9293487920632959E+00    8.5622207511632116E+00    4.5109346067093732E+00
C2    8.5622260998658017E+00    6.9293560644309311E+00    7.4000593958608576E+00
C2    8.0883202878458462E+00    6.4553097063227867E+00    4.5109217366629943E+00
C3    6.4756848572007009E+00    8.1192593194108849E+00    8.7937598251741154E+00
C3    6.8975078383381723E+00    8.5412941475767639E+00    3.1172641769073355E+00
C3    8.5412932199892868E+00    6.8975023541366651E+00    8.7937300402888852E+00
C3    8.1192554876547280E+00    6.4756847925749073E+00    3.1172346661286987E+00
C4    7.5089289950389606E+00    7.5091084009765643E+00    9.5045716495802761E+00
C4    7.5091075848124591E+00    7.5089284095201227E+00    2.4064234658967059E+00
C5    5.4092390633293350E+00    8.8682180992907789E+00    9.4995453903566140E+00
C5    6.1494540402666518E+00    9.6082656601477012E+00    2.4113076730569105E+00
C5    9.6082736265525917E+00    6.1494741013051586E+00    9.4997051158620653E+00
C5    8.8682369561975278E+00    5.4092464759685814E+00    2.4114666542352192E+00
H2    5.5993130552695130E+00    8.5225811912060685E+00    6.8824240214791184E+00
H2    6.4943481712153579E+00    9.4178170472522229E+00    5.0286031798355513E+00
H2    9.4178179391481134E+00    6.4943456161607722E+00    6.8823922484331641E+00
H2    8.5225794023597441E+00    5.5993143557586285E+00    5.0285716043325079E+00
H4    7.5088325747385349E+00    7.5089383382674466E+00    1.0593532552172288E+01
H4    7.5089387511998114E+00    7.5088327685449334E+00    1.3174632992552202E+00
O1    4.2960615850672896E+00    8.9833157278266604E+00    8.8879289286989636E+00
O1    6.0337473827191230E+00    1.0721244523053228E+01    3.0231476709268659E+00
O1    1.0721249638247521E+01    6.0337429597893513E+00    8.8878541046210398E+00
O1    8.9833123421648349E+00    4.2960669302268215E+00    3.0230729031901453E+00
O2    9.3517156456468253E+00    5.7389088522441467E+00    1.2838913820758504E+00
O2    9.2784521291193141E+00    5.6656225737447867E+00    1.0627089897753434E+01
O2    5.6656276722559902E+00    9.2784476164753311E+00    1.2839080165020671E+00
O2    5.7389037176119944E+00    9.3517201385147963E+00    1.0627106814723547E+01
C1    6.1251074193254202E-04    7.8870097335886436E-04    7.3269962078717676E-01
C1    7.8768020324399425E-04    6.1297373720741420E-04    1.1178472885057261E+01
C2    1.0537373560676151E+00    1.4437690676946234E+01    1.4446319696862580E+00
C2    5.7959938269895717E-01    1.3963746953494097E+01    1.0466537143931422E+01
C2    1.3963728375688301E+01    5.7960427592558184E-01    1.4445953135575564E+00
C2    1.4437696788971751E+01    1.0537212715749493E+00    1.0466500595725005E+01
C3    1.0333766498683856E+00    1.4406887517504433E+01    2.8383121277733792E+00
C3    6.1152746715588246E-01    1.3984710211083694E+01    9.0728742267162570E+00
C3    1.3984683872500199E+01    6.1148982180433231E-01    2.8382567154871756E+00
C3    1.4406850909917944E+01    1.0333513355331607E+00    9.0728189822046339E+00
C4   -1.3808702315815507E-06   -1.8112363405391757E-04    3.5490992364092717E+00
C4   -1.8150172163035851E-04   -1.3352689300405469E-06    8.3620310332907284E+00
C5    2.0996211990296398E+00    1.3657830648245303E+01    3.5442171309535997E+00
C5    1.3591509342973036E+00    1.2917618284442044E+01    8.3666858382267755E+00
C5    1.2917621107688889E+01    1.3591568834392744E+00    3.5444297652789838E+00
C5    1.3657836664859145E+01    2.0996248448721695E+00    8.3668995504811612E+00
H2    1.9097475286720322E+00    1.4003417918453289E+01    9.2701431685630942E-01
H2    1.0146814653673342E+00    1.3108192174074702E+01    1.0984209837051564E+01
H2    1.3108160859183977E+01    1.0146593328089759E+00    9.2692473728461222E-01
H2    1.4003396697772047E+01    1.9097184425317464E+00    1.0984120389806112E+01
H4    1.3067920258984681E-04    4.5664230400054167E-05    4.6380621088749132E+00
H4    4.3711089609517738E-05    1.2988904608095717E-04    7.2730712407328362E+00
O1    3.2130424614199415E+00    1.3542724144804314E+01    2.9330817493377923E+00
O1    1.4748795267046322E+00    1.1804467841664092E+01    8.9781326747140575E+00
O1    1.1804452315706520E+01    1.4748869272646137E+00    2.9330001137165707E+00
O1    1.3542734768445587E+01    3.2130287233268677E+00    8.9780505278427132E+00
O2    1.3174361464777537E+01    1.7696729857599953E+00    7.2393866142547303E+00
O2    1.3247698021171571E+01    1.8430689969983238E+00    4.6717221605891259E+00
O2    1.8430542913755297E+00    1.3247684907169127E+01    7.2393757217152030E+00
O2    1.7696569909695090E+00    1.3174343055022153E+01    4.6717105490208546E+00
C1    6.1758585448757610E-04    7.5084233953490660E+00    3.7101842290561993E+00
C1    5.3244036481474299E-04    7.5082466933445229E+00    2.2449110170874746E+00
C2    5.7946189791451397E-01    8.5624448462521574E+00    4.4219341863630897E+00
C2    1.0538787802282112E+00    8.0882830743960934E+00    1.5331255873386811E+00
C2    1.4437781255637390E+01    6.4549645184521269E+00    4.4219698630968693E+00
C2    1.3963458220621163E+01    6.9294462487526980E+00    1.5331813337424707E+00
C3    6.1101684949540946E-01    8.5411827417579342E+00    5.8155223181136089E+00
C3    1.0331115291300825E+00    8.1190463281342353E+00    1.3949145032061308E-01
C3    1.4407025390568943E+01    6.4756946909969253E+00    5.8155936857905361E+00
C3    1.3984766525988915E+01    6.8976261363510352E+00    1.3957868463912076E-01
C4   -1.8956861719990220E-04    7.5088799592324635E+00    6.5262805129924457E+00
C4   -6.1444756019812187E-05    7.5091364361739901E+00    1.1339878962728507E+01
C5    1.3578045851129366E+00    9.6076133727050195E+00    6.5227762176746422E+00
C5    2.0989551978921650E+00    8.8668769458707803E+00    1.1343272829176382E+01
C5    1.3659206412380478E+01    5.4098428764143982E+00    6.5227304594841700E+00
C5    1.2918265532503282E+01    6.1508214623634494E+00    1.1343258305873244E+01
H2    1.0146294174732502E+00    9.4180121090955584E+00    3.9043096269034137E+00
H2    1.9098648752367122E+00    8.5226316488165335E+00    2.0507716275456578E+00
H2    1.4003375849921532E+01    5.5990071586872476E+00    3.9043367662403834E+00
H2    1.3107958400058752E+01    6.4942597856758280E+00    2.0508948798788560E+00
H4    5.6981661313745461E-06    7.5087964324372667E+00    7.6152197024544899E+00
H4    6.5427467761382588E-05    7.5089312812583771E+00    1.0250944597197758E+01
O1    1.4718369491935321E+00    1.0722413712176243E+01    5.9147671141528670E+00
O1    3.2137510647389496E+00    8.9804514920901521E+00    4.0500572958434893E-02
O1    1.3545804891661483E+01    4.2948846288075462E+00    5.9148535385785523E+00
O1    1.1803730518818542E+01    6.0365225448526374E+00    4.0758852268042225E-02
O2    1.3250317509619553E+01    5.6661856007431428E+00    1.0216660861585677E+01
O2    1.3174665851448799E+01    5.7419574988536359E+00    7.6493405454911754E+00
O2    1.7670759329723009E+00    9.3511810920086909E+00    1.0216506440630882E+01
O2    1.8425976373006745E+00    9.2752459545926431E+00    7.6492274971419647E+00
C1    7.5082469530770544E+00    5.3238968594492670E-04    9.6661463285949036E+00
C1    7.5084237661380211E+00    6.1660079909843339E-04    8.2008710809682714E+00
C2    6.9294356216279533E+00    1.3963456386620777E+01    1.0377865071809024E+01
C2    6.4549588941225275E+00    1.4437795182533218E+01    7.4890807215084783E+00
C2    8.0882924838432508E+00    1.0538814602350914E+00    1.0377920839611365E+01
C2    8.5624497515424007E+00    5.7944867886023110E-01    7.4891164647494097E+00
C3    6.8976219280253623E+00    1.3984770783153273E+01    1.1771471091114865E+01
C3    6.4757065977859503E+00    1.4407018096371221E+01    6.0954587259404205E+00
C3    8.1190524614301882E+00    1.0331063815134498E+00    1.1771558249507626E+01
C3    8.5411707683849016E+00    6.1102431871162455E-01    6.0955301366876746E+00
C4    7.5091351244621682E+00   -6.0516491254418880E-05    5.7118144881952715E-01
C4    7.5088799093363843E+00   -1.8939704608001643E-04    5.3847594016418308E+00
C5    6.1508022450314721E+00    1.2918269163890773E+01    5.6779241122562030E-01
C5    5.4098474443737121E+00    1.3659226402149129E+01    5.3883132438371950E+00
C5    8.8668936345508094E+00    2.0989527207742440E+00    5.6777930981367652E-01
C5    9.6076092541687590E+00    1.3577835444765933E+00    5.3882668391223900E+00
H2    6.4942589368236723E+00    1.3107952276827749E+01    9.8601501794123294E+00
H2    5.5990043322683336E+00    1.4003375557990623E+01    8.0067050665070418E+00
H2    8.5226337608580245E+00    1.9098705527339206E+00    9.8602734585580656E+00
H2    9.4180148846555536E+00    1.0146293456711712E+00    8.0067321047904318E+00
H4    7.5089309248748100E+00    6.5642745699908160E-05    1.6601161818912056E+00
H4    7.5087961217560508E+00    5.9947711586975083E-06    4.2958190515394818E+00
O1    6.0365056288387651E+00    1.1803742128732445E+01    1.1870264706453822E+01
O1    4.2948776611336701E+00    1.3545787650914773E+01    5.9961651128542179E+00
O1    8.9804690578292004E+00    3.2137393174912301E+00    1.1870522816818605E+01
O1    1.0722420196239595E+01    1.4718546836833268E+00    5.9962523321562733E+00
O2    9.2751911121587440E+00    1.8426323363901416E+00    4.2618562435873288E+00
O2    9.3512033529554301E+00    1.7671267402871158E+00    1.6945562565183470E+00
O2    5.7420125867090031E+00    1.3174632080195403E+01    4.2617429236909992E+00
O2    5.6661648060774583E+00    1.3250265991765859E+01    1.6944026250631052E+00
     &END COORD
     &KIND Ga
       BASIS_SET DZVP-MOLOPT-SR-GTH
       POTENTIAL GTH-PBE-q13
       &POTENTIAL
 2 1 10
  0.4900000000000000E+00 0
 3
  0.4167772300000000E+00 3  0.1047568975000000E+02 -0.4921768140000000E+01  0.8707055900000000E+00
  0.7770178090000000E+01 -0.2248152160000000E+01
  0.1784415450000000E+01
  0.5696265200000000E+00 2  0.1777985340000000E+01  0.1958597600000000E+00
 -0.2317443900000000E+00
  0.2381265000000000E+00 1 -0.1624868022000000E+02
         # Potential name:  GTH-PBE-Q13  for symbol:  GA
         # Potential read from the potential filename: POTENTIAL
       &END POTENTIAL
     &END KIND
     &KIND O
       BASIS_SET DZVP-MOLOPT-GTH
       POTENTIAL GTH-PBE-q6
       &POTENTIAL
 2 4
  0.2445543000000000E+00 2 -0.1666721480000000E+02  0.2487311320000000E+01
 2
  0.2209559200000000E+00 1  0.1833745811000000E+02
  0.2113324700000000E+00 0
         # Potential name:  GTH-PBE-Q6  for symbol:  O
         # Potential read from the potential filename: POTENTIAL
       &END POTENTIAL
     &END KIND
     &KIND C
       BASIS_SET DZVP-MOLOPT-GTH
       POTENTIAL GTH-PBE-q4
       &POTENTIAL
 2 2
  0.3384712400000000E+00 2 -0.8803673979999999E+01  0.1339210850000000E+01
 2
  0.3025757500000000E+00 1  0.9622486650000001E+01
  0.2915069400000000E+00 0
         # Potential name:  GTH-PBE-Q4  for symbol:  C
         # Potential read from the potential filename: POTENTIAL
       &END POTENTIAL
     &END KIND
     &KIND H
       BASIS_SET DZVP-MOLOPT-GTH
       POTENTIAL GTH-PBE-q1
       &POTENTIAL
 1
  0.2000000000000000E+00 2 -0.4178900440000000E+01  0.7244633100000000E+00
 0
         # Potential name:  GTH-PBE-Q1  for symbol:  H
         # Potential read from the potential filename: POTENTIAL
       &END POTENTIAL
     &END KIND
     &TOPOLOGY
       COORD_FILE_NAME a3_MFM-300_Ga_symkinds.xyz
       COORD_FILE_FORMAT  XYZ
       NUMBER_OF_ATOMS  144
       CONN_FILE_FORMAT  OFF
       MULTIPLE_UNIT_CELL  1 1 1
     &END TOPOLOGY
   &END SUBSYS
 &END FORCE_EVAL
