&GLOBAL
   PROJECT 3_MFM-300_Ga
   RUN_TYPE ENERGY
   PRINT_LEVEL MEDIUM
&END GLOBAL
&FORCE_EVAL
   METHOD Quickstep
   &PROPERTIES
      &RESP
         USE_REPEAT_METHOD
         &SPHERE_SAMPLING
            AUTO_VDW_RADII_TABLE UFF 
            AUTO_RMIN_SCALE 1.2
            AUTO_RMAX_SCALE 100
         &END 
         @INCLUDE 'a3_MFM-300_Ga_constr.inc'
         &PRINT
!            &COORD_FIT_POINTS
!            &END
            &RESP_CHARGES_TO_FILE
            &END
            &V_RESP_CUBE
            &END
         &END PRINT
      &END RESP
      &FIT_CHARGE
      &END FIT_CHARGE
   &END PROPERTIES
   &DFT
      BASIS_SET_FILE_NAME BASIS_MOLOPT
      POTENTIAL_FILE_NAME POTENTIAL
      &MGRID
         CUTOFF 500
         NGRIDS 5
      &END MGRID
      &QS
         EPS_DEFAULT 1.000E-12
      &END QS
      &SCF
         SCF_GUESS ATOMIC
         EPS_SCF 1.0E-6
         MAX_SCF 15
         &OT T
            MINIMIZER DIIS
            PRECONDITIONER FULL_SINGLE_INVERSE
         &END OT
         &OUTER_SCF T
            EPS_SCF 1.0E-06
            MAX_SCF 200
         &END OUTER_SCF
      &END SCF
      &XC
         &XC_FUNCTIONAL
            &PBE
            &END PBE
         &END XC_FUNCTIONAL
         &XC_GRID
            XC_SMOOTH_RHO NN10
            XC_DERIV SPLINE2_SMOOTH
         &END XC_GRID
         &VDW_POTENTIAL
            POTENTIAL_TYPE PAIR_POTENTIAL
            &PAIR_POTENTIAL
               TYPE DFTD3
               PARAMETER_FILE_NAME dftd3.dat
               VERBOSE_OUTPUT .TRUE.
               REFERENCE_FUNCTIONAL PBE
               R_CUTOFF [angstrom] 16.
            &END PAIR_POTENTIAL
         &END VDW_POTENTIAL
      &END XC
      &PRINT
         &MOMENTS
           PERIODIC
         &END MOMENTS
         &V_HARTREE_CUBE
         &END V_HARTREE_CUBE
         &E_DENSITY_CUBE
         &END E_DENSITY_CUBE
      &END PRINT
   &END DFT
   &SUBSYS
      &TOPOLOGY
         COORD_FILE_NAME a3_MFM-300_Ga_symkinds.xyz
         COORD_FILE_FORMAT XYZ
         CONNECTIVITY OFF
      &END TOPOLOGY
      &CELL
         PERIODIC XYZ
         ABC 15.017   15.017   11.911
         ALPHA_BETA_GAMMA 90.0 90.0 90.0
         SYMMETRY ORTHORHOMBIC
      &END CELL
      &PRINT
         &SYMMETRY
            EPS_GEO 1.0E-2
         &END SYMMETRY
      &END PRINT
      &KIND Ga
         BASIS_SET DZVP-MOLOPT-SR-GTH
         POTENTIAL GTH-PBE-q13
      &END KIND
      &KIND O
         BASIS_SET DZVP-MOLOPT-GTH
         POTENTIAL GTH-PBE-q6
      &END KIND
      &KIND C
         BASIS_SET DZVP-MOLOPT-GTH
         POTENTIAL GTH-PBE-q4
      &END KIND
      &KIND H
         BASIS_SET DZVP-MOLOPT-GTH
         POTENTIAL GTH-PBE-q1
      &END KIND
   &END SUBSYS
&END FORCE_EVAL
